0	56	124	126	57	147	147	186	188	31	175	
90	0	193	101	148	141	38	185	36	180	109	
188	131	0	127	77	68	163	181	48	181	65	
162	104	103	0	74	170	105	178	69	52	126	
76	67	77	119	0	50	169	165	178	76	151	
100	196	29	101	142	0	46	103	70	190	31	
113	173	71	152	195	174	0	101	166	161	56	
74	72	69	43	114	179	76	0	56	33	21	
57	147	47	114	40	196	191	39	0	68	95	
178	57	115	103	111	156	66	112	169	0	84	
174	33	71	142	164	113	62	117	101	132	0	
